TCS_Benchmarks/redos_fix/regexlib2_output_distinct_3662_3661_202_0.smt2
(set-logic QF_S)
(declare-const x String)
(assert (str.in.re x (re.inter  (re.++ (re.* (re.union (re.range "\u{00}" "\u{09}") (re.range "\u{0b}" "\u{0c}") (re.range "\u{0e}" "\u{84}") (re.range "\u{86}" "\u{ff}")) ) (re.* (re.union (re.range "\u{00}" "\u{09}") (re.range "\u{0b}" "\u{0c}") (re.range "\u{0e}" "\u{84}") (re.range "\u{86}" "\u{ff}")) ))  (re.++ (re.* (re.union (re.range "\u{00}" "\u{09}") (re.range "\u{0b}" "\u{0c}") (re.range "\u{0e}" "\u{84}") (re.range "\u{86}" "\u{ff}")) ) (re.++  (re.union  (str.to.re "\u{40}") (re.union  (str.to.re "\u{2f}") (re.union  (str.to.re "\u{5e}") (re.union  (str.to.re "\u{5f}") (re.union  (str.to.re "\u{7b}") (re.union  (str.to.re "\u{21}") (re.union  (str.to.re "\u{61}") (re.union  (str.to.re "\u{23}") (re.union  (str.to.re "\u{24}") (re.union  (str.to.re "\u{25}") (re.union  (str.to.re "\u{26}") (re.union  (str.to.re "\u{27}") (re.union  (str.to.re "\u{67}") (re.union  (str.to.re "\u{28}") (re.union  (str.to.re "\u{29}") (re.union  (str.to.re "\u{2a}") (re.union  (str.to.re "\u{2b}") (re.union  (str.to.re "\u{6c}") (re.union  (str.to.re "\u{2c}") (re.union  (str.to.re "\u{6d}") (re.union  (str.to.re "\u{2e}") (re.union  (str.to.re "\u{6f}") (re.union  (str.to.re "\u{70}") (re.union  (str.to.re "\u{71}") (re.union  (str.to.re "\u{74}") (re.union  (str.to.re "\u{75}") (re.union  (str.to.re "\u{3a}") (re.union  (str.to.re "\u{3b}") (re.union  (str.to.re "\u{7d}")  (str.to.re "\u{3f}")))))))))))))))))))))))))))))) (re.* (re.union (re.range "\u{00}" "\u{09}") (re.range "\u{0b}" "\u{0c}") (re.range "\u{0e}" "\u{84}") (re.range "\u{86}" "\u{ff}")) ))) )))
(check-sat)
(get-model)