TCS_Benchmarks/redos_fix/regexlib2_output_distinct_3662_3661_202_0.txt
(.*)(.*)
(.*)([@\/^_\{!a#$%&'g()*+l,m.opqtu:;}?])(.*)